(declare-const X String)
; ^A([0-9]|10)$
(assert (not (str.in_re X (re.++ (str.to_re "A") (re.union (re.range "0" "9") (str.to_re "10")) (str.to_re "\u{a}")))))
; Host\x3A.*www\x2e2-seek\x2ecom\x2fsearch
(assert (str.in_re X (re.++ (str.to_re "Host:") (re.* re.allchar) (str.to_re "www.2-seek.com/search\u{a}"))))
; User-Agent\x3A.*User-Agent\x3A.*spyblini\x2Einidata\.warezclient\.com
(assert (str.in_re X (re.++ (str.to_re "User-Agent:") (re.* re.allchar) (str.to_re "User-Agent:") (re.* re.allchar) (str.to_re "spyblini.inidata.warezclient.com\u{a}"))))
(check-sat)

(exit)
